20	13000	3000	1200
2972	663	545
4424	703	733
4093	719	572
4563	546	702
2417	521	609
2715	592	702
3979	816	536
3381	780	551
4313	796	723
4621	773	615
2252	800	553
4852	853	570
4114	789	568
4891	801	624
4890	860	700
3891	765	746
2311	821	655
3864	795	528
2386	573	779
2377	560	611
